************************************************************************
file with basedata            : mm58_.bas
initial value random generator: 1632787957
************************************************************************
projects                      :  1
jobs (incl. supersource/sink ):  12
horizon                       :  80
RESOURCES
  - renewable                 :  2   R
  - nonrenewable              :  2   N
  - doubly constrained        :  0   D
************************************************************************
PROJECT INFORMATION:
pronr.  #jobs rel.date duedate tardcost  MPM-Time
    1     10      0       17        3       17
************************************************************************
PRECEDENCE RELATIONS:
jobnr.    #modes  #successors   successors
   0        1          3           1   2   3
   1        3          1           8
   2        3          3           4   5   9
   3        3          2           5   6
   4        3          2           7   8
   5        3          1          10
   6        3          2           8   9
   7        3          1          10
   8        3          1          11
   9        3          1          11
  10        3          1          11
  11        1          0        
************************************************************************
REQUESTS/DURATIONS:
jobnr. mode duration  R 1  R 2  R 3  R 4  E(W 1)  E(W 2)  E(W 3)
------------------------------------------------------------------------
  0      1     0       0    0    0    0     0       0       0
  1      1     2       3    7    4    0    20       8       0
  2      1     8       9    6    0    6    120       0      48
  3      1     5      10    8    0    7    90       0      35
  4      1     4       3    7    9    0    40      36       0
  5      1     3       8    4    9    0    36      27       0
  6      1     2       4    6    6    0    20      12       0
  7      1     1       8    6    0   10    14       0      10
  8      1     1       6    5    0    7    11       0       7
  9      1     4       2    7    2    0    36       8       0
 10      1     4       3    6    5    0    36      20       0
 11      1     0       0    0    0    0     0       0       0
************************************************************************
RESOURCEAVAILABILITIES:
  R 1  R 2  R 3
   43   36   28
************************************************************************
RESOURCE LIMITS:
jobnr.  l(R 1)  u(R 1)  l(R 2)  u(R 2)  l(R 3)  u(R 3)
------------------------------------------------------------------------
  0        0       0       0       0       0       0
  1        6      10       2       4       0       0
  2        8      15       0       0       3       6
  3        9      18       0       0       4       7
  4        6      10       5       9       0       0
  5        6      12       5       9       0       0
  6        5      10       3       6       0       0
  7        7      14       0       0       5      10
  8        6      11       0       0       4       7
  9        5       9       1       2       0       0
 10        5       9       3       5       0       0
 11        0       0       0       0       0       0
************************************************************************
SCENARIOS:
------------------------------------------------------------------------
RESOURCE k = 1
s = 1: (0, 22, 186, 88, 32, 44, 17, 16, 13, 40, 41, 0)
s = 2: (0, 14, 150, 135, 66, 38, 32, 16, 9, 48, 31, 0)
s = 3: (0, 22, 153, 94, 32, 29, 19, 16, 13, 36, 64, 0)
s = 4: (0, 24, 90, 89, 39, 39, 20, 15, 11, 52, 34, 0)
s = 5: (0, 13, 110, 58, 27, 41, 16, 9, 7, 41, 23, 0)
s = 6: (0, 20, 139, 89, 42, 44, 20, 16, 9, 53, 35, 0)
s = 7: (0, 15, 115, 154, 51, 38, 31, 15, 16, 20, 21, 0)
s = 8: (0, 12, 180, 100, 40, 24, 20, 9, 12, 30, 32, 0)
s = 9: (0, 12, 98, 82, 45, 49, 18, 17, 9, 29, 37, 0)
s = 10: (0, 15, 105, 55, 27, 36, 24, 13, 10, 63, 27, 0)
s = 11: (0, 18, 132, 59, 25, 57, 13, 9, 11, 42, 38, 0)
s = 12: (0, 16, 64, 76, 51, 48, 25, 23, 8, 47, 49, 0)
s = 13: (0, 34, 116, 70, 32, 28, 11, 14, 9, 50, 40, 0)
s = 14: (0, 19, 120, 58, 79, 28, 15, 17, 12, 48, 28, 0)
s = 15: (0, 21, 126, 98, 30, 45, 19, 10, 8, 43, 33, 0)
s = 16: (0, 11, 148, 57, 24, 23, 33, 13, 8, 41, 62, 0)
s = 17: (0, 26, 101, 107, 29, 40, 15, 11, 10, 48, 38, 0)
s = 18: (0, 22, 111, 61, 34, 25, 25, 10, 10, 30, 24, 0)
s = 19: (0, 19, 170, 80, 28, 45, 18, 14, 8, 33, 26, 0)
s = 20: (0, 20, 147, 76, 33, 48, 19, 16, 12, 43, 35, 0)
s = 21: (0, 14, 176, 99, 46, 49, 16, 14, 10, 40, 36, 0)
s = 22: (0, 12, 101, 74, 45, 48, 28, 10, 16, 34, 63, 0)
s = 23: (0, 20, 96, 103, 31, 47, 16, 15, 12, 31, 43, 0)
s = 24: (0, 26, 147, 77, 24, 21, 32, 14, 15, 26, 26, 0)
s = 25: (0, 28, 128, 123, 31, 21, 13, 9, 14, 30, 34, 0)
s = 26: (0, 24, 128, 79, 34, 33, 16, 16, 12, 29, 31, 0)
s = 27: (0, 15, 108, 65, 33, 20, 19, 18, 15, 45, 45, 0)
s = 28: (0, 19, 87, 110, 33, 32, 24, 14, 12, 30, 26, 0)
s = 29: (0, 26, 119, 56, 31, 49, 25, 17, 14, 40, 29, 0)
s = 30: (0, 24, 75, 81, 45, 42, 22, 8, 14, 54, 39, 0)
s = 31: (0, 26, 81, 87, 42, 37, 16, 12, 16, 23, 26, 0)
s = 32: (0, 28, 132, 79, 29, 42, 24, 15, 8, 33, 21, 0)
s = 33: (0, 18, 87, 59, 31, 52, 13, 14, 15, 39, 26, 0)
s = 34: (0, 16, 186, 49, 35, 24, 27, 18, 8, 40, 40, 0)
s = 35: (0, 27, 147, 84, 35, 54, 13, 16, 9, 26, 41, 0)
s = 36: (0, 19, 157, 140, 35, 22, 19, 15, 11, 24, 37, 0)
s = 37: (0, 25, 95, 80, 41, 59, 21, 11, 14, 29, 33, 0)
s = 38: (0, 13, 101, 63, 44, 44, 29, 19, 16, 39, 24, 0)
s = 39: (0, 27, 91, 109, 55, 29, 26, 14, 14, 53, 40, 0)
s = 40: (0, 32, 144, 74, 51, 52, 15, 16, 11, 52, 36, 0)
s = 41: (0, 20, 71, 82, 63, 26, 19, 18, 8, 33, 30, 0)
s = 42: (0, 18, 83, 70, 27, 31, 14, 11, 12, 38, 44, 0)
s = 43: (0, 18, 130, 76, 42, 55, 24, 19, 15, 37, 43, 0)
s = 44: (0, 35, 131, 130, 54, 19, 22, 10, 14, 36, 50, 0)
s = 45: (0, 15, 208, 107, 27, 39, 22, 22, 9, 29, 29, 0)
s = 46: (0, 21, 120, 102, 25, 21, 29, 19, 9, 32, 39, 0)
s = 47: (0, 25, 158, 61, 53, 37, 20, 10, 14, 37, 31, 0)
s = 48: (0, 17, 104, 126, 38, 48, 22, 12, 11, 22, 41, 0)
s = 49: (0, 16, 146, 92, 34, 46, 22, 18, 15, 35, 32, 0)
s = 50: (0, 22, 122, 76, 29, 46, 27, 9, 8, 29, 33, 0)
s = 51: (0, 22, 159, 59, 66, 36, 15, 23, 11, 35, 43, 0)
s = 52: (0, 13, 115, 142, 44, 45, 20, 20, 8, 34, 51, 0)
s = 53: (0, 13, 85, 101, 29, 49, 28, 25, 8, 27, 54, 0)
s = 54: (0, 23, 76, 88, 30, 52, 16, 16, 13, 43, 22, 0)
s = 55: (0, 24, 151, 94, 75, 37, 22, 23, 17, 40, 39, 0)
s = 56: (0, 30, 77, 56, 48, 33, 20, 12, 13, 26, 36, 0)
s = 57: (0, 20, 83, 92, 37, 30, 21, 16, 13, 46, 23, 0)
s = 58: (0, 18, 63, 49, 53, 22, 19, 15, 10, 53, 44, 0)
s = 59: (0, 25, 86, 71, 43, 38, 25, 10, 12, 23, 42, 0)
s = 60: (0, 22, 95, 94, 31, 31, 11, 25, 11, 47, 33, 0)
s = 61: (0, 21, 77, 74, 32, 31, 20, 10, 13, 25, 33, 0)
s = 62: (0, 13, 80, 83, 41, 36, 21, 18, 8, 35, 48, 0)
s = 63: (0, 27, 94, 136, 30, 67, 17, 15, 12, 23, 33, 0)
s = 64: (0, 25, 140, 81, 35, 39, 25, 17, 11, 51, 35, 0)
s = 65: (0, 15, 87, 76, 46, 44, 22, 9, 8, 38, 38, 0)
s = 66: (0, 21, 81, 120, 75, 54, 19, 15, 9, 24, 24, 0)
s = 67: (0, 16, 121, 66, 28, 22, 25, 9, 13, 59, 26, 0)
s = 68: (0, 16, 190, 101, 29, 34, 18, 17, 12, 46, 28, 0)
s = 69: (0, 38, 216, 120, 47, 28, 21, 16, 15, 28, 20, 0)
s = 70: (0, 14, 149, 111, 24, 30, 25, 16, 12, 42, 42, 0)
s = 71: (0, 15, 92, 90, 43, 35, 20, 12, 15, 40, 41, 0)
s = 72: (0, 14, 144, 123, 51, 43, 28, 12, 12, 47, 21, 0)
s = 73: (0, 29, 89, 61, 40, 22, 18, 9, 16, 41, 33, 0)
s = 74: (0, 30, 106, 102, 39, 57, 30, 18, 8, 42, 27, 0)
s = 75: (0, 18, 122, 69, 42, 33, 20, 12, 14, 45, 37, 0)
s = 76: (0, 19, 91, 91, 36, 52, 19, 21, 9, 23, 34, 0)
s = 77: (0, 22, 68, 58, 30, 25, 18, 21, 9, 41, 30, 0)
s = 78: (0, 15, 82, 86, 27, 33, 24, 23, 10, 37, 28, 0)
s = 79: (0, 16, 90, 140, 55, 38, 21, 14, 10, 59, 29, 0)
s = 80: (0, 17, 87, 146, 42, 30, 22, 12, 12, 36, 24, 0)
s = 81: (0, 21, 173, 105, 27, 31, 23, 13, 7, 65, 33, 0)
s = 82: (0, 18, 145, 81, 37, 23, 24, 9, 9, 33, 38, 0)
s = 83: (0, 28, 159, 85, 38, 30, 20, 10, 12, 41, 36, 0)
s = 84: (0, 21, 83, 135, 53, 28, 33, 21, 12, 39, 48, 0)
s = 85: (0, 20, 100, 86, 35, 53, 24, 8, 16, 34, 54, 0)
s = 86: (0, 19, 94, 84, 46, 28, 19, 22, 15, 29, 37, 0)
s = 87: (0, 13, 110, 62, 47, 45, 17, 15, 14, 28, 51, 0)
s = 88: (0, 30, 135, 118, 38, 35, 33, 17, 13, 38, 39, 0)
s = 89: (0, 19, 151, 136, 41, 30, 27, 18, 7, 38, 41, 0)
s = 90: (0, 22, 91, 58, 50, 35, 21, 13, 14, 27, 55, 0)
s = 91: (0, 24, 175, 115, 25, 31, 22, 15, 13, 30, 40, 0)
s = 92: (0, 14, 93, 96, 32, 41, 21, 25, 11, 47, 28, 0)
s = 93: (0, 17, 144, 74, 28, 37, 20, 17, 9, 33, 33, 0)
s = 94: (0, 25, 131, 84, 45, 22, 22, 23, 14, 37, 49, 0)
s = 95: (0, 12, 101, 118, 27, 26, 21, 12, 11, 34, 28, 0)
s = 96: (0, 24, 94, 126, 39, 42, 20, 16, 10, 37, 26, 0)
s = 97: (0, 23, 123, 113, 26, 36, 29, 15, 11, 31, 51, 0)
s = 98: (0, 23, 101, 62, 45, 41, 19, 13, 12, 35, 69, 0)
s = 99: (0, 22, 186, 117, 29, 24, 25, 15, 16, 60, 38, 0)
s = 100: (0, 20, 109, 119, 49, 24, 26, 13, 9, 45, 34, 0)
s = 101: (0, 23, 88, 61, 35, 36, 17, 11, 13, 41, 21, 0)
s = 102: (0, 20, 88, 87, 28, 42, 18, 9, 11, 41, 25, 0)
s = 103: (0, 21, 158, 89, 37, 39, 17, 22, 11, 39, 31, 0)
s = 104: (0, 14, 131, 103, 48, 45, 21, 20, 12, 38, 34, 0)
s = 105: (0, 21, 111, 61, 25, 30, 20, 17, 7, 27, 38, 0)
s = 106: (0, 20, 73, 109, 44, 40, 17, 15, 12, 48, 24, 0)
s = 107: (0, 29, 108, 86, 29, 46, 20, 15, 16, 36, 46, 0)
s = 108: (0, 19, 73, 145, 46, 55, 28, 12, 13, 50, 37, 0)
s = 109: (0, 13, 97, 77, 33, 40, 22, 22, 9, 39, 36, 0)
s = 110: (0, 22, 123, 113, 49, 37, 24, 17, 8, 31, 23, 0)
s = 111: (0, 24, 65, 66, 43, 55, 16, 16, 14, 26, 40, 0)
s = 112: (0, 13, 126, 108, 36, 42, 22, 17, 11, 30, 30, 0)
s = 113: (0, 25, 158, 144, 38, 59, 16, 18, 8, 49, 34, 0)
s = 114: (0, 20, 114, 64, 26, 21, 21, 11, 8, 40, 25, 0)
s = 115: (0, 18, 145, 86, 33, 25, 17, 13, 10, 29, 43, 0)
s = 116: (0, 24, 165, 75, 58, 21, 20, 15, 10, 20, 28, 0)
s = 117: (0, 30, 67, 91, 31, 25, 14, 12, 13, 59, 59, 0)
s = 118: (0, 16, 132, 66, 31, 56, 27, 20, 10, 29, 33, 0)
s = 119: (0, 27, 151, 79, 37, 47, 34, 20, 11, 35, 37, 0)
s = 120: (0, 19, 101, 72, 54, 26, 26, 13, 10, 47, 32, 0)
s = 121: (0, 21, 128, 116, 45, 24, 23, 14, 8, 30, 57, 0)
s = 122: (0, 31, 169, 66, 42, 23, 27, 13, 10, 27, 27, 0)
s = 123: (0, 29, 118, 83, 46, 29, 27, 23, 12, 27, 32, 0)
s = 124: (0, 21, 127, 78, 45, 21, 16, 9, 8, 25, 43, 0)
s = 125: (0, 30, 144, 79, 32, 41, 23, 14, 9, 54, 51, 0)
s = 126: (0, 15, 116, 86, 48, 30, 35, 14, 8, 26, 46, 0)
s = 127: (0, 20, 98, 80, 28, 50, 21, 10, 11, 23, 33, 0)
s = 128: (0, 24, 82, 76, 46, 26, 19, 14, 6, 53, 35, 0)
s = 129: (0, 15, 99, 66, 47, 29, 26, 14, 8, 24, 54, 0)
s = 130: (0, 24, 98, 91, 39, 31, 20, 14, 8, 42, 38, 0)
s = 131: (0, 20, 110, 122, 34, 28, 20, 14, 14, 33, 37, 0)
s = 132: (0, 23, 95, 73, 43, 28, 38, 13, 9, 24, 38, 0)
s = 133: (0, 22, 130, 72, 53, 46, 29, 18, 14, 31, 38, 0)
s = 134: (0, 36, 106, 109, 41, 31, 21, 21, 10, 43, 30, 0)
s = 135: (0, 18, 142, 108, 47, 42, 14, 18, 13, 26, 37, 0)
s = 136: (0, 27, 102, 100, 30, 31, 16, 15, 8, 31, 50, 0)
s = 137: (0, 23, 118, 66, 28, 46, 22, 10, 11, 32, 34, 0)
s = 138: (0, 16, 158, 93, 36, 25, 42, 20, 9, 45, 36, 0)
s = 139: (0, 22, 103, 95, 30, 49, 14, 10, 11, 27, 25, 0)
s = 140: (0, 19, 155, 140, 59, 30, 19, 19, 8, 24, 39, 0)
s = 141: (0, 25, 147, 75, 31, 22, 23, 17, 13, 30, 38, 0)
s = 142: (0, 15, 97, 86, 35, 56, 30, 15, 16, 33, 33, 0)
s = 143: (0, 28, 72, 74, 52, 35, 27, 13, 8, 25, 31, 0)
s = 144: (0, 20, 120, 91, 41, 29, 26, 20, 8, 61, 37, 0)
s = 145: (0, 13, 99, 72, 62, 49, 22, 11, 15, 52, 48, 0)
s = 146: (0, 16, 109, 69, 54, 32, 12, 15, 10, 26, 38, 0)
s = 147: (0, 12, 158, 63, 28, 50, 35, 14, 14, 49, 28, 0)
s = 148: (0, 22, 77, 59, 32, 42, 15, 13, 14, 55, 36, 0)
s = 149: (0, 18, 124, 88, 31, 48, 15, 16, 10, 52, 28, 0)
s = 150: (0, 21, 156, 64, 36, 24, 16, 14, 7, 25, 53, 0)
s = 151: (0, 16, 143, 70, 45, 30, 20, 15, 12, 26, 42, 0)
s = 152: (0, 22, 88, 100, 30, 49, 24, 23, 11, 36, 33, 0)
s = 153: (0, 16, 139, 82, 29, 25, 12, 12, 12, 32, 67, 0)
s = 154: (0, 21, 88, 93, 28, 25, 26, 15, 12, 44, 24, 0)
s = 155: (0, 26, 122, 106, 46, 35, 28, 9, 9, 26, 24, 0)
s = 156: (0, 16, 113, 88, 53, 34, 26, 17, 9, 40, 60, 0)
s = 157: (0, 19, 116, 52, 55, 49, 23, 13, 12, 33, 39, 0)
s = 158: (0, 23, 93, 76, 48, 43, 26, 11, 9, 30, 54, 0)
s = 159: (0, 24, 78, 62, 45, 31, 16, 13, 17, 29, 27, 0)
s = 160: (0, 21, 138, 68, 49, 22, 22, 15, 13, 33, 45, 0)
s = 161: (0, 21, 98, 133, 46, 54, 14, 10, 9, 58, 26, 0)
s = 162: (0, 17, 93, 105, 58, 44, 12, 12, 11, 48, 39, 0)
s = 163: (0, 22, 106, 56, 33, 53, 21, 18, 10, 34, 34, 0)
s = 164: (0, 15, 101, 74, 25, 31, 17, 9, 13, 27, 43, 0)
s = 165: (0, 20, 126, 90, 28, 45, 21, 18, 8, 39, 58, 0)
s = 166: (0, 26, 155, 52, 29, 26, 27, 16, 11, 35, 25, 0)
s = 167: (0, 22, 92, 90, 29, 33, 17, 10, 10, 41, 47, 0)
s = 168: (0, 24, 137, 125, 66, 39, 19, 11, 19, 26, 62, 0)
s = 169: (0, 25, 155, 86, 44, 36, 20, 12, 8, 26, 48, 0)
s = 170: (0, 17, 140, 88, 36, 30, 25, 16, 11, 47, 47, 0)
s = 171: (0, 12, 98, 71, 38, 40, 19, 17, 8, 28, 55, 0)
s = 172: (0, 19, 91, 103, 43, 26, 21, 16, 12, 42, 30, 0)
s = 173: (0, 15, 127, 60, 62, 20, 14, 13, 8, 27, 20, 0)
s = 174: (0, 18, 90, 99, 58, 54, 19, 13, 8, 34, 30, 0)
s = 175: (0, 15, 127, 85, 41, 27, 20, 18, 9, 38, 25, 0)
s = 176: (0, 17, 140, 76, 42, 36, 19, 11, 12, 28, 36, 0)
s = 177: (0, 23, 162, 69, 34, 29, 17, 8, 16, 31, 37, 0)
s = 178: (0, 28, 109, 90, 29, 45, 13, 15, 8, 21, 24, 0)
s = 179: (0, 13, 175, 118, 58, 27, 20, 19, 9, 43, 43, 0)
s = 180: (0, 22, 134, 73, 35, 28, 18, 12, 18, 39, 27, 0)
s = 181: (0, 27, 87, 58, 59, 60, 25, 10, 17, 39, 24, 0)
s = 182: (0, 15, 95, 111, 39, 50, 25, 10, 16, 39, 46, 0)
s = 183: (0, 13, 113, 101, 49, 42, 15, 13, 9, 37, 30, 0)
s = 184: (0, 30, 162, 62, 30, 46, 20, 14, 8, 27, 31, 0)
s = 185: (0, 11, 104, 53, 38, 39, 27, 27, 14, 43, 29, 0)
s = 186: (0, 23, 81, 104, 41, 34, 21, 18, 13, 22, 34, 0)
s = 187: (0, 13, 134, 117, 41, 32, 17, 11, 8, 48, 58, 0)
s = 188: (0, 14, 111, 52, 47, 45, 13, 18, 10, 42, 35, 0)
s = 189: (0, 20, 101, 73, 22, 21, 21, 14, 9, 37, 37, 0)
s = 190: (0, 20, 170, 64, 44, 26, 15, 9, 9, 33, 34, 0)
s = 191: (0, 19, 98, 94, 44, 53, 18, 26, 14, 48, 30, 0)
s = 192: (0, 21, 151, 72, 47, 38, 16, 9, 9, 38, 27, 0)
s = 193: (0, 33, 204, 75, 56, 25, 27, 13, 11, 32, 28, 0)
s = 194: (0, 25, 74, 119, 43, 40, 40, 17, 13, 42, 28, 0)
s = 195: (0, 20, 144, 82, 30, 43, 16, 24, 17, 35, 47, 0)
s = 196: (0, 20, 112, 109, 54, 64, 33, 9, 14, 27, 20, 0)
s = 197: (0, 30, 100, 80, 28, 38, 29, 10, 13, 51, 34, 0)
s = 198: (0, 11, 100, 75, 47, 25, 25, 13, 9, 35, 50, 0)
s = 199: (0, 19, 183, 113, 39, 36, 23, 15, 10, 24, 20, 0)
s = 200: (0, 18, 118, 65, 24, 49, 32, 22, 6, 41, 52, 0)
------------------------------------------------------------------------
RESOURCE k = 2
s = 1: (0, 9, 0, 0, 29, 33, 10, 0, 0, 9, 23, 0)
s = 2: (0, 6, 0, 0, 60, 28, 20, 0, 0, 11, 17, 0)
s = 3: (0, 9, 0, 0, 29, 22, 12, 0, 0, 8, 36, 0)
s = 4: (0, 10, 0, 0, 35, 29, 12, 0, 0, 12, 19, 0)
s = 5: (0, 6, 0, 0, 25, 31, 10, 0, 0, 10, 13, 0)
s = 6: (0, 8, 0, 0, 38, 33, 12, 0, 0, 12, 20, 0)
s = 7: (0, 6, 0, 0, 46, 28, 19, 0, 0, 5, 12, 0)
s = 8: (0, 5, 0, 0, 36, 18, 12, 0, 0, 7, 18, 0)
s = 9: (0, 5, 0, 0, 40, 37, 11, 0, 0, 7, 21, 0)
s = 10: (0, 6, 0, 0, 24, 27, 14, 0, 0, 14, 15, 0)
s = 11: (0, 8, 0, 0, 23, 43, 8, 0, 0, 10, 22, 0)
s = 12: (0, 7, 0, 0, 46, 36, 15, 0, 0, 11, 28, 0)
s = 13: (0, 14, 0, 0, 29, 21, 7, 0, 0, 12, 22, 0)
s = 14: (0, 8, 0, 0, 71, 21, 9, 0, 0, 11, 16, 0)
s = 15: (0, 9, 0, 0, 27, 34, 11, 0, 0, 10, 19, 0)
s = 16: (0, 5, 0, 0, 21, 17, 20, 0, 0, 10, 35, 0)
s = 17: (0, 11, 0, 0, 26, 30, 9, 0, 0, 11, 21, 0)
s = 18: (0, 9, 0, 0, 31, 19, 15, 0, 0, 7, 14, 0)
s = 19: (0, 8, 0, 0, 25, 34, 11, 0, 0, 8, 14, 0)
s = 20: (0, 8, 0, 0, 30, 36, 11, 0, 0, 10, 20, 0)
s = 21: (0, 6, 0, 0, 41, 37, 10, 0, 0, 9, 20, 0)
s = 22: (0, 5, 0, 0, 41, 36, 17, 0, 0, 8, 35, 0)
s = 23: (0, 8, 0, 0, 28, 36, 10, 0, 0, 7, 24, 0)
s = 24: (0, 11, 0, 0, 22, 16, 19, 0, 0, 6, 14, 0)
s = 25: (0, 12, 0, 0, 28, 16, 8, 0, 0, 7, 19, 0)
s = 26: (0, 10, 0, 0, 30, 25, 10, 0, 0, 7, 18, 0)
s = 27: (0, 6, 0, 0, 30, 15, 12, 0, 0, 10, 25, 0)
s = 28: (0, 8, 0, 0, 30, 24, 14, 0, 0, 7, 15, 0)
s = 29: (0, 11, 0, 0, 28, 37, 15, 0, 0, 9, 16, 0)
s = 30: (0, 10, 0, 0, 41, 32, 13, 0, 0, 12, 22, 0)
s = 31: (0, 11, 0, 0, 38, 28, 10, 0, 0, 5, 15, 0)
s = 32: (0, 12, 0, 0, 26, 32, 15, 0, 0, 8, 12, 0)
s = 33: (0, 7, 0, 0, 28, 39, 8, 0, 0, 9, 15, 0)
s = 34: (0, 7, 0, 0, 32, 18, 16, 0, 0, 9, 22, 0)
s = 35: (0, 11, 0, 0, 31, 41, 8, 0, 0, 6, 23, 0)
s = 36: (0, 8, 0, 0, 32, 17, 12, 0, 0, 6, 21, 0)
s = 37: (0, 10, 0, 0, 37, 44, 13, 0, 0, 7, 18, 0)
s = 38: (0, 5, 0, 0, 39, 33, 18, 0, 0, 9, 14, 0)
s = 39: (0, 11, 0, 0, 49, 22, 16, 0, 0, 12, 23, 0)
s = 40: (0, 13, 0, 0, 46, 39, 9, 0, 0, 12, 20, 0)
s = 41: (0, 8, 0, 0, 56, 19, 12, 0, 0, 8, 17, 0)
s = 42: (0, 7, 0, 0, 24, 23, 8, 0, 0, 9, 25, 0)
s = 43: (0, 7, 0, 0, 38, 41, 15, 0, 0, 9, 24, 0)
s = 44: (0, 14, 0, 0, 49, 15, 13, 0, 0, 8, 28, 0)
s = 45: (0, 6, 0, 0, 24, 29, 13, 0, 0, 7, 16, 0)
s = 46: (0, 9, 0, 0, 23, 16, 18, 0, 0, 7, 22, 0)
s = 47: (0, 10, 0, 0, 48, 28, 12, 0, 0, 9, 18, 0)
s = 48: (0, 7, 0, 0, 34, 36, 13, 0, 0, 5, 23, 0)
s = 49: (0, 7, 0, 0, 31, 35, 13, 0, 0, 8, 18, 0)
s = 50: (0, 9, 0, 0, 26, 35, 17, 0, 0, 7, 18, 0)
s = 51: (0, 9, 0, 0, 60, 27, 9, 0, 0, 8, 24, 0)
s = 52: (0, 6, 0, 0, 40, 34, 12, 0, 0, 8, 29, 0)
s = 53: (0, 6, 0, 0, 26, 37, 17, 0, 0, 6, 30, 0)
s = 54: (0, 10, 0, 0, 27, 39, 10, 0, 0, 10, 12, 0)
s = 55: (0, 10, 0, 0, 67, 28, 13, 0, 0, 9, 22, 0)
s = 56: (0, 12, 0, 0, 43, 25, 12, 0, 0, 6, 20, 0)
s = 57: (0, 8, 0, 0, 33, 22, 13, 0, 0, 11, 13, 0)
s = 58: (0, 8, 0, 0, 48, 16, 12, 0, 0, 12, 25, 0)
s = 59: (0, 10, 0, 0, 39, 28, 15, 0, 0, 6, 24, 0)
s = 60: (0, 9, 0, 0, 28, 23, 7, 0, 0, 11, 18, 0)
s = 61: (0, 9, 0, 0, 29, 23, 12, 0, 0, 6, 19, 0)
s = 62: (0, 5, 0, 0, 37, 27, 13, 0, 0, 8, 27, 0)
s = 63: (0, 11, 0, 0, 27, 51, 10, 0, 0, 6, 19, 0)
s = 64: (0, 10, 0, 0, 32, 29, 15, 0, 0, 12, 20, 0)
s = 65: (0, 6, 0, 0, 41, 33, 13, 0, 0, 9, 22, 0)
s = 66: (0, 9, 0, 0, 67, 40, 12, 0, 0, 6, 14, 0)
s = 67: (0, 7, 0, 0, 25, 17, 15, 0, 0, 13, 15, 0)
s = 68: (0, 7, 0, 0, 26, 25, 11, 0, 0, 11, 16, 0)
s = 69: (0, 16, 0, 0, 42, 21, 13, 0, 0, 7, 11, 0)
s = 70: (0, 6, 0, 0, 22, 22, 15, 0, 0, 10, 23, 0)
s = 71: (0, 6, 0, 0, 38, 27, 12, 0, 0, 9, 23, 0)
s = 72: (0, 6, 0, 0, 46, 32, 17, 0, 0, 11, 12, 0)
s = 73: (0, 12, 0, 0, 36, 17, 11, 0, 0, 10, 19, 0)
s = 74: (0, 12, 0, 0, 35, 43, 18, 0, 0, 10, 15, 0)
s = 75: (0, 8, 0, 0, 38, 25, 12, 0, 0, 10, 21, 0)
s = 76: (0, 8, 0, 0, 33, 39, 12, 0, 0, 5, 19, 0)
s = 77: (0, 9, 0, 0, 27, 19, 11, 0, 0, 10, 17, 0)
s = 78: (0, 6, 0, 0, 25, 25, 14, 0, 0, 9, 16, 0)
s = 79: (0, 7, 0, 0, 50, 28, 13, 0, 0, 14, 16, 0)
s = 80: (0, 7, 0, 0, 38, 23, 13, 0, 0, 8, 14, 0)
s = 81: (0, 9, 0, 0, 24, 23, 14, 0, 0, 15, 19, 0)
s = 82: (0, 7, 0, 0, 33, 18, 15, 0, 0, 8, 21, 0)
s = 83: (0, 11, 0, 0, 34, 23, 12, 0, 0, 10, 20, 0)
s = 84: (0, 9, 0, 0, 48, 21, 20, 0, 0, 9, 27, 0)
s = 85: (0, 8, 0, 0, 32, 40, 15, 0, 0, 8, 30, 0)
s = 86: (0, 8, 0, 0, 41, 21, 12, 0, 0, 7, 21, 0)
s = 87: (0, 5, 0, 0, 42, 34, 11, 0, 0, 7, 29, 0)
s = 88: (0, 12, 0, 0, 34, 27, 20, 0, 0, 9, 22, 0)
s = 89: (0, 8, 0, 0, 37, 22, 16, 0, 0, 9, 23, 0)
s = 90: (0, 9, 0, 0, 45, 26, 13, 0, 0, 6, 31, 0)
s = 91: (0, 10, 0, 0, 22, 23, 14, 0, 0, 7, 22, 0)
s = 92: (0, 6, 0, 0, 29, 31, 13, 0, 0, 11, 16, 0)
s = 93: (0, 7, 0, 0, 25, 28, 12, 0, 0, 8, 18, 0)
s = 94: (0, 10, 0, 0, 40, 16, 13, 0, 0, 9, 27, 0)
s = 95: (0, 5, 0, 0, 24, 20, 13, 0, 0, 8, 16, 0)
s = 96: (0, 10, 0, 0, 35, 31, 12, 0, 0, 9, 15, 0)
s = 97: (0, 10, 0, 0, 24, 27, 18, 0, 0, 7, 29, 0)
s = 98: (0, 9, 0, 0, 41, 31, 11, 0, 0, 8, 39, 0)
s = 99: (0, 9, 0, 0, 26, 18, 15, 0, 0, 14, 21, 0)
s = 100: (0, 8, 0, 0, 45, 18, 16, 0, 0, 10, 19, 0)
s = 101: (0, 10, 0, 0, 32, 27, 10, 0, 0, 9, 12, 0)
s = 102: (0, 8, 0, 0, 25, 32, 11, 0, 0, 10, 14, 0)
s = 103: (0, 9, 0, 0, 33, 29, 11, 0, 0, 9, 18, 0)
s = 104: (0, 6, 0, 0, 43, 34, 13, 0, 0, 9, 19, 0)
s = 105: (0, 9, 0, 0, 22, 23, 12, 0, 0, 6, 21, 0)
s = 106: (0, 8, 0, 0, 39, 30, 11, 0, 0, 11, 13, 0)
s = 107: (0, 12, 0, 0, 26, 34, 12, 0, 0, 8, 26, 0)
s = 108: (0, 8, 0, 0, 42, 41, 17, 0, 0, 12, 21, 0)
s = 109: (0, 6, 0, 0, 29, 30, 13, 0, 0, 9, 20, 0)
s = 110: (0, 9, 0, 0, 44, 28, 15, 0, 0, 7, 13, 0)
s = 111: (0, 10, 0, 0, 39, 41, 10, 0, 0, 6, 22, 0)
s = 112: (0, 6, 0, 0, 33, 32, 13, 0, 0, 7, 17, 0)
s = 113: (0, 10, 0, 0, 34, 45, 10, 0, 0, 11, 19, 0)
s = 114: (0, 8, 0, 0, 23, 16, 13, 0, 0, 9, 14, 0)
s = 115: (0, 7, 0, 0, 29, 19, 10, 0, 0, 7, 24, 0)
s = 116: (0, 10, 0, 0, 52, 16, 12, 0, 0, 5, 16, 0)
s = 117: (0, 12, 0, 0, 28, 19, 9, 0, 0, 13, 33, 0)
s = 118: (0, 7, 0, 0, 28, 42, 16, 0, 0, 7, 18, 0)
s = 119: (0, 11, 0, 0, 33, 35, 21, 0, 0, 8, 21, 0)
s = 120: (0, 8, 0, 0, 49, 19, 16, 0, 0, 11, 18, 0)
s = 121: (0, 9, 0, 0, 40, 18, 14, 0, 0, 7, 32, 0)
s = 122: (0, 13, 0, 0, 37, 18, 17, 0, 0, 6, 15, 0)
s = 123: (0, 12, 0, 0, 42, 22, 16, 0, 0, 6, 18, 0)
s = 124: (0, 9, 0, 0, 41, 16, 10, 0, 0, 6, 24, 0)
s = 125: (0, 12, 0, 0, 29, 31, 14, 0, 0, 12, 29, 0)
s = 126: (0, 6, 0, 0, 43, 23, 21, 0, 0, 6, 26, 0)
s = 127: (0, 8, 0, 0, 25, 38, 13, 0, 0, 5, 19, 0)
s = 128: (0, 10, 0, 0, 41, 20, 11, 0, 0, 12, 20, 0)
s = 129: (0, 6, 0, 0, 43, 22, 16, 0, 0, 6, 30, 0)
s = 130: (0, 10, 0, 0, 35, 24, 12, 0, 0, 10, 21, 0)
s = 131: (0, 8, 0, 0, 30, 21, 12, 0, 0, 8, 21, 0)
s = 132: (0, 10, 0, 0, 39, 21, 23, 0, 0, 6, 21, 0)
s = 133: (0, 9, 0, 0, 47, 35, 18, 0, 0, 7, 21, 0)
s = 134: (0, 15, 0, 0, 37, 24, 13, 0, 0, 10, 17, 0)
s = 135: (0, 7, 0, 0, 42, 32, 9, 0, 0, 6, 21, 0)
s = 136: (0, 11, 0, 0, 27, 23, 10, 0, 0, 7, 28, 0)
s = 137: (0, 10, 0, 0, 25, 35, 14, 0, 0, 7, 19, 0)
s = 138: (0, 7, 0, 0, 32, 19, 25, 0, 0, 10, 20, 0)
s = 139: (0, 9, 0, 0, 27, 37, 9, 0, 0, 6, 14, 0)
s = 140: (0, 8, 0, 0, 53, 22, 11, 0, 0, 6, 22, 0)
s = 141: (0, 10, 0, 0, 28, 17, 14, 0, 0, 7, 21, 0)
s = 142: (0, 6, 0, 0, 32, 42, 18, 0, 0, 8, 18, 0)
s = 143: (0, 12, 0, 0, 47, 27, 16, 0, 0, 6, 18, 0)
s = 144: (0, 8, 0, 0, 37, 22, 16, 0, 0, 14, 21, 0)
s = 145: (0, 5, 0, 0, 56, 37, 13, 0, 0, 12, 27, 0)
s = 146: (0, 7, 0, 0, 49, 24, 8, 0, 0, 6, 21, 0)
s = 147: (0, 5, 0, 0, 25, 37, 21, 0, 0, 11, 16, 0)
s = 148: (0, 9, 0, 0, 29, 32, 9, 0, 0, 13, 20, 0)
s = 149: (0, 7, 0, 0, 28, 36, 9, 0, 0, 12, 16, 0)
s = 150: (0, 9, 0, 0, 32, 18, 10, 0, 0, 6, 29, 0)
s = 151: (0, 7, 0, 0, 41, 23, 12, 0, 0, 6, 24, 0)
s = 152: (0, 9, 0, 0, 27, 37, 15, 0, 0, 8, 18, 0)
s = 153: (0, 7, 0, 0, 26, 19, 8, 0, 0, 8, 37, 0)
s = 154: (0, 9, 0, 0, 25, 19, 16, 0, 0, 10, 13, 0)
s = 155: (0, 11, 0, 0, 41, 26, 17, 0, 0, 6, 13, 0)
s = 156: (0, 7, 0, 0, 48, 26, 16, 0, 0, 9, 33, 0)
s = 157: (0, 8, 0, 0, 50, 37, 14, 0, 0, 8, 22, 0)
s = 158: (0, 9, 0, 0, 43, 32, 16, 0, 0, 7, 30, 0)
s = 159: (0, 10, 0, 0, 41, 24, 10, 0, 0, 7, 15, 0)
s = 160: (0, 9, 0, 0, 44, 16, 14, 0, 0, 8, 25, 0)
s = 161: (0, 9, 0, 0, 41, 41, 9, 0, 0, 13, 15, 0)
s = 162: (0, 7, 0, 0, 52, 33, 7, 0, 0, 11, 22, 0)
s = 163: (0, 9, 0, 0, 30, 40, 13, 0, 0, 8, 19, 0)
s = 164: (0, 6, 0, 0, 23, 23, 10, 0, 0, 6, 24, 0)
s = 165: (0, 8, 0, 0, 25, 34, 13, 0, 0, 9, 32, 0)
s = 166: (0, 11, 0, 0, 26, 20, 16, 0, 0, 8, 14, 0)
s = 167: (0, 9, 0, 0, 26, 25, 10, 0, 0, 9, 26, 0)
s = 168: (0, 10, 0, 0, 59, 30, 11, 0, 0, 6, 34, 0)
s = 169: (0, 10, 0, 0, 40, 27, 12, 0, 0, 6, 27, 0)
s = 170: (0, 7, 0, 0, 32, 23, 15, 0, 0, 11, 26, 0)
s = 171: (0, 5, 0, 0, 34, 30, 12, 0, 0, 7, 31, 0)
s = 172: (0, 8, 0, 0, 39, 20, 13, 0, 0, 10, 17, 0)
s = 173: (0, 6, 0, 0, 56, 15, 9, 0, 0, 6, 12, 0)
s = 174: (0, 8, 0, 0, 52, 40, 11, 0, 0, 8, 17, 0)
s = 175: (0, 6, 0, 0, 37, 20, 12, 0, 0, 9, 14, 0)
s = 176: (0, 7, 0, 0, 38, 27, 12, 0, 0, 7, 20, 0)
s = 177: (0, 10, 0, 0, 31, 22, 10, 0, 0, 7, 21, 0)
s = 178: (0, 12, 0, 0, 26, 34, 8, 0, 0, 5, 14, 0)
s = 179: (0, 5, 0, 0, 53, 20, 12, 0, 0, 10, 24, 0)
s = 180: (0, 9, 0, 0, 32, 21, 11, 0, 0, 9, 15, 0)
s = 181: (0, 11, 0, 0, 53, 45, 15, 0, 0, 9, 13, 0)
s = 182: (0, 6, 0, 0, 35, 37, 15, 0, 0, 9, 26, 0)
s = 183: (0, 5, 0, 0, 45, 32, 9, 0, 0, 9, 17, 0)
s = 184: (0, 12, 0, 0, 27, 35, 12, 0, 0, 6, 17, 0)
s = 185: (0, 5, 0, 0, 34, 30, 17, 0, 0, 10, 16, 0)
s = 186: (0, 9, 0, 0, 37, 26, 13, 0, 0, 5, 19, 0)
s = 187: (0, 6, 0, 0, 37, 24, 11, 0, 0, 11, 32, 0)
s = 188: (0, 6, 0, 0, 42, 34, 8, 0, 0, 10, 20, 0)
s = 189: (0, 8, 0, 0, 20, 16, 13, 0, 0, 9, 21, 0)
s = 190: (0, 8, 0, 0, 40, 20, 9, 0, 0, 8, 19, 0)
s = 191: (0, 8, 0, 0, 40, 40, 11, 0, 0, 11, 17, 0)
s = 192: (0, 9, 0, 0, 43, 29, 10, 0, 0, 9, 15, 0)
s = 193: (0, 14, 0, 0, 51, 19, 16, 0, 0, 8, 16, 0)
s = 194: (0, 10, 0, 0, 39, 30, 24, 0, 0, 10, 16, 0)
s = 195: (0, 8, 0, 0, 27, 32, 10, 0, 0, 8, 26, 0)
s = 196: (0, 8, 0, 0, 49, 48, 20, 0, 0, 6, 11, 0)
s = 197: (0, 12, 0, 0, 25, 29, 17, 0, 0, 12, 19, 0)
s = 198: (0, 5, 0, 0, 42, 19, 15, 0, 0, 8, 28, 0)
s = 199: (0, 8, 0, 0, 35, 27, 14, 0, 0, 6, 11, 0)
s = 200: (0, 7, 0, 0, 22, 37, 20, 0, 0, 9, 29, 0)
------------------------------------------------------------------------
RESOURCE k = 3
s = 1: (0, 0, 75, 34, 0, 0, 0, 12, 8, 0, 0, 0)
s = 2: (0, 0, 60, 53, 0, 0, 0, 11, 6, 0, 0, 0)
s = 3: (0, 0, 61, 37, 0, 0, 0, 11, 9, 0, 0, 0)
s = 4: (0, 0, 36, 35, 0, 0, 0, 11, 7, 0, 0, 0)
s = 5: (0, 0, 44, 23, 0, 0, 0, 7, 4, 0, 0, 0)
s = 6: (0, 0, 56, 35, 0, 0, 0, 12, 6, 0, 0, 0)
s = 7: (0, 0, 46, 60, 0, 0, 0, 11, 11, 0, 0, 0)
s = 8: (0, 0, 72, 39, 0, 0, 0, 7, 8, 0, 0, 0)
s = 9: (0, 0, 40, 32, 0, 0, 0, 12, 6, 0, 0, 0)
s = 10: (0, 0, 42, 22, 0, 0, 0, 10, 7, 0, 0, 0)
s = 11: (0, 0, 53, 23, 0, 0, 0, 7, 7, 0, 0, 0)
s = 12: (0, 0, 26, 30, 0, 0, 0, 17, 5, 0, 0, 0)
s = 13: (0, 0, 47, 28, 0, 0, 0, 10, 6, 0, 0, 0)
s = 14: (0, 0, 48, 23, 0, 0, 0, 12, 8, 0, 0, 0)
s = 15: (0, 0, 51, 38, 0, 0, 0, 8, 5, 0, 0, 0)
s = 16: (0, 0, 60, 22, 0, 0, 0, 9, 5, 0, 0, 0)
s = 17: (0, 0, 41, 42, 0, 0, 0, 8, 7, 0, 0, 0)
s = 18: (0, 0, 45, 24, 0, 0, 0, 7, 7, 0, 0, 0)
s = 19: (0, 0, 68, 31, 0, 0, 0, 10, 5, 0, 0, 0)
s = 20: (0, 0, 59, 30, 0, 0, 0, 12, 8, 0, 0, 0)
s = 21: (0, 0, 71, 39, 0, 0, 0, 10, 6, 0, 0, 0)
s = 22: (0, 0, 41, 29, 0, 0, 0, 7, 11, 0, 0, 0)
s = 23: (0, 0, 39, 40, 0, 0, 0, 11, 8, 0, 0, 0)
s = 24: (0, 0, 59, 30, 0, 0, 0, 10, 9, 0, 0, 0)
s = 25: (0, 0, 51, 48, 0, 0, 0, 7, 9, 0, 0, 0)
s = 26: (0, 0, 51, 31, 0, 0, 0, 11, 8, 0, 0, 0)
s = 27: (0, 0, 43, 26, 0, 0, 0, 13, 10, 0, 0, 0)
s = 28: (0, 0, 35, 43, 0, 0, 0, 10, 8, 0, 0, 0)
s = 29: (0, 0, 48, 22, 0, 0, 0, 13, 9, 0, 0, 0)
s = 30: (0, 0, 30, 32, 0, 0, 0, 6, 9, 0, 0, 0)
s = 31: (0, 0, 33, 34, 0, 0, 0, 9, 11, 0, 0, 0)
s = 32: (0, 0, 53, 31, 0, 0, 0, 11, 5, 0, 0, 0)
s = 33: (0, 0, 35, 23, 0, 0, 0, 10, 10, 0, 0, 0)
s = 34: (0, 0, 75, 19, 0, 0, 0, 13, 5, 0, 0, 0)
s = 35: (0, 0, 59, 33, 0, 0, 0, 11, 6, 0, 0, 0)
s = 36: (0, 0, 63, 55, 0, 0, 0, 11, 7, 0, 0, 0)
s = 37: (0, 0, 38, 31, 0, 0, 0, 8, 9, 0, 0, 0)
s = 38: (0, 0, 41, 25, 0, 0, 0, 14, 10, 0, 0, 0)
s = 39: (0, 0, 37, 43, 0, 0, 0, 10, 9, 0, 0, 0)
s = 40: (0, 0, 58, 29, 0, 0, 0, 11, 7, 0, 0, 0)
s = 41: (0, 0, 29, 32, 0, 0, 0, 13, 5, 0, 0, 0)
s = 42: (0, 0, 34, 27, 0, 0, 0, 8, 8, 0, 0, 0)
s = 43: (0, 0, 52, 30, 0, 0, 0, 14, 10, 0, 0, 0)
s = 44: (0, 0, 53, 51, 0, 0, 0, 7, 9, 0, 0, 0)
s = 45: (0, 0, 84, 42, 0, 0, 0, 16, 6, 0, 0, 0)
s = 46: (0, 0, 48, 40, 0, 0, 0, 14, 6, 0, 0, 0)
s = 47: (0, 0, 64, 24, 0, 0, 0, 8, 9, 0, 0, 0)
s = 48: (0, 0, 42, 49, 0, 0, 0, 9, 7, 0, 0, 0)
s = 49: (0, 0, 59, 36, 0, 0, 0, 13, 9, 0, 0, 0)
s = 50: (0, 0, 49, 30, 0, 0, 0, 6, 5, 0, 0, 0)
s = 51: (0, 0, 64, 23, 0, 0, 0, 16, 7, 0, 0, 0)
s = 52: (0, 0, 46, 55, 0, 0, 0, 14, 6, 0, 0, 0)
s = 53: (0, 0, 34, 40, 0, 0, 0, 18, 5, 0, 0, 0)
s = 54: (0, 0, 31, 34, 0, 0, 0, 11, 8, 0, 0, 0)
s = 55: (0, 0, 61, 37, 0, 0, 0, 16, 11, 0, 0, 0)
s = 56: (0, 0, 31, 22, 0, 0, 0, 9, 9, 0, 0, 0)
s = 57: (0, 0, 33, 36, 0, 0, 0, 11, 9, 0, 0, 0)
s = 58: (0, 0, 26, 19, 0, 0, 0, 11, 7, 0, 0, 0)
s = 59: (0, 0, 35, 28, 0, 0, 0, 7, 8, 0, 0, 0)
s = 60: (0, 0, 38, 37, 0, 0, 0, 18, 7, 0, 0, 0)
s = 61: (0, 0, 31, 29, 0, 0, 0, 7, 9, 0, 0, 0)
s = 62: (0, 0, 32, 33, 0, 0, 0, 13, 5, 0, 0, 0)
s = 63: (0, 0, 38, 53, 0, 0, 0, 11, 8, 0, 0, 0)
s = 64: (0, 0, 56, 32, 0, 0, 0, 13, 7, 0, 0, 0)
s = 65: (0, 0, 35, 30, 0, 0, 0, 7, 5, 0, 0, 0)
s = 66: (0, 0, 33, 47, 0, 0, 0, 11, 6, 0, 0, 0)
s = 67: (0, 0, 49, 26, 0, 0, 0, 6, 8, 0, 0, 0)
s = 68: (0, 0, 76, 40, 0, 0, 0, 12, 8, 0, 0, 0)
s = 69: (0, 0, 87, 47, 0, 0, 0, 12, 10, 0, 0, 0)
s = 70: (0, 0, 60, 43, 0, 0, 0, 11, 8, 0, 0, 0)
s = 71: (0, 0, 37, 35, 0, 0, 0, 9, 10, 0, 0, 0)
s = 72: (0, 0, 58, 48, 0, 0, 0, 9, 8, 0, 0, 0)
s = 73: (0, 0, 36, 24, 0, 0, 0, 6, 11, 0, 0, 0)
s = 74: (0, 0, 43, 40, 0, 0, 0, 13, 5, 0, 0, 0)
s = 75: (0, 0, 49, 27, 0, 0, 0, 9, 9, 0, 0, 0)
s = 76: (0, 0, 37, 36, 0, 0, 0, 15, 6, 0, 0, 0)
s = 77: (0, 0, 27, 23, 0, 0, 0, 15, 6, 0, 0, 0)
s = 78: (0, 0, 33, 34, 0, 0, 0, 16, 7, 0, 0, 0)
s = 79: (0, 0, 36, 55, 0, 0, 0, 10, 7, 0, 0, 0)
s = 80: (0, 0, 35, 57, 0, 0, 0, 9, 8, 0, 0, 0)
s = 81: (0, 0, 70, 41, 0, 0, 0, 9, 5, 0, 0, 0)
s = 82: (0, 0, 58, 32, 0, 0, 0, 6, 6, 0, 0, 0)
s = 83: (0, 0, 64, 33, 0, 0, 0, 7, 8, 0, 0, 0)
s = 84: (0, 0, 34, 53, 0, 0, 0, 15, 8, 0, 0, 0)
s = 85: (0, 0, 40, 34, 0, 0, 0, 6, 10, 0, 0, 0)
s = 86: (0, 0, 38, 33, 0, 0, 0, 16, 10, 0, 0, 0)
s = 87: (0, 0, 44, 25, 0, 0, 0, 11, 9, 0, 0, 0)
s = 88: (0, 0, 54, 46, 0, 0, 0, 12, 9, 0, 0, 0)
s = 89: (0, 0, 61, 53, 0, 0, 0, 13, 5, 0, 0, 0)
s = 90: (0, 0, 37, 23, 0, 0, 0, 9, 9, 0, 0, 0)
s = 91: (0, 0, 70, 45, 0, 0, 0, 11, 8, 0, 0, 0)
s = 92: (0, 0, 37, 38, 0, 0, 0, 18, 7, 0, 0, 0)
s = 93: (0, 0, 58, 29, 0, 0, 0, 12, 6, 0, 0, 0)
s = 94: (0, 0, 53, 33, 0, 0, 0, 16, 9, 0, 0, 0)
s = 95: (0, 0, 41, 46, 0, 0, 0, 9, 7, 0, 0, 0)
s = 96: (0, 0, 38, 49, 0, 0, 0, 12, 6, 0, 0, 0)
s = 97: (0, 0, 50, 44, 0, 0, 0, 11, 7, 0, 0, 0)
s = 98: (0, 0, 41, 25, 0, 0, 0, 9, 8, 0, 0, 0)
s = 99: (0, 0, 75, 46, 0, 0, 0, 11, 10, 0, 0, 0)
s = 100: (0, 0, 44, 47, 0, 0, 0, 9, 6, 0, 0, 0)
s = 101: (0, 0, 36, 24, 0, 0, 0, 8, 8, 0, 0, 0)
s = 102: (0, 0, 36, 34, 0, 0, 0, 6, 7, 0, 0, 0)
s = 103: (0, 0, 64, 35, 0, 0, 0, 16, 7, 0, 0, 0)
s = 104: (0, 0, 53, 41, 0, 0, 0, 14, 8, 0, 0, 0)
s = 105: (0, 0, 45, 24, 0, 0, 0, 12, 5, 0, 0, 0)
s = 106: (0, 0, 30, 43, 0, 0, 0, 11, 8, 0, 0, 0)
s = 107: (0, 0, 44, 34, 0, 0, 0, 11, 10, 0, 0, 0)
s = 108: (0, 0, 30, 57, 0, 0, 0, 9, 8, 0, 0, 0)
s = 109: (0, 0, 39, 30, 0, 0, 0, 16, 6, 0, 0, 0)
s = 110: (0, 0, 49, 44, 0, 0, 0, 12, 5, 0, 0, 0)
s = 111: (0, 0, 26, 26, 0, 0, 0, 11, 9, 0, 0, 0)
s = 112: (0, 0, 51, 42, 0, 0, 0, 12, 7, 0, 0, 0)
s = 113: (0, 0, 63, 56, 0, 0, 0, 13, 5, 0, 0, 0)
s = 114: (0, 0, 46, 25, 0, 0, 0, 8, 5, 0, 0, 0)
s = 115: (0, 0, 58, 34, 0, 0, 0, 9, 7, 0, 0, 0)
s = 116: (0, 0, 66, 29, 0, 0, 0, 11, 6, 0, 0, 0)
s = 117: (0, 0, 27, 36, 0, 0, 0, 9, 8, 0, 0, 0)
s = 118: (0, 0, 53, 26, 0, 0, 0, 14, 7, 0, 0, 0)
s = 119: (0, 0, 61, 31, 0, 0, 0, 15, 7, 0, 0, 0)
s = 120: (0, 0, 41, 28, 0, 0, 0, 9, 6, 0, 0, 0)
s = 121: (0, 0, 51, 45, 0, 0, 0, 10, 5, 0, 0, 0)
s = 122: (0, 0, 68, 26, 0, 0, 0, 10, 7, 0, 0, 0)
s = 123: (0, 0, 48, 33, 0, 0, 0, 16, 8, 0, 0, 0)
s = 124: (0, 0, 51, 31, 0, 0, 0, 7, 5, 0, 0, 0)
s = 125: (0, 0, 58, 31, 0, 0, 0, 10, 6, 0, 0, 0)
s = 126: (0, 0, 47, 34, 0, 0, 0, 10, 6, 0, 0, 0)
s = 127: (0, 0, 40, 31, 0, 0, 0, 7, 7, 0, 0, 0)
s = 128: (0, 0, 33, 30, 0, 0, 0, 10, 4, 0, 0, 0)
s = 129: (0, 0, 40, 26, 0, 0, 0, 10, 5, 0, 0, 0)
s = 130: (0, 0, 40, 36, 0, 0, 0, 10, 5, 0, 0, 0)
s = 131: (0, 0, 44, 48, 0, 0, 0, 10, 9, 0, 0, 0)
s = 132: (0, 0, 38, 29, 0, 0, 0, 9, 6, 0, 0, 0)
s = 133: (0, 0, 52, 28, 0, 0, 0, 13, 9, 0, 0, 0)
s = 134: (0, 0, 43, 43, 0, 0, 0, 15, 7, 0, 0, 0)
s = 135: (0, 0, 57, 42, 0, 0, 0, 13, 8, 0, 0, 0)
s = 136: (0, 0, 41, 39, 0, 0, 0, 11, 5, 0, 0, 0)
s = 137: (0, 0, 48, 26, 0, 0, 0, 7, 7, 0, 0, 0)
s = 138: (0, 0, 63, 37, 0, 0, 0, 14, 6, 0, 0, 0)
s = 139: (0, 0, 41, 37, 0, 0, 0, 7, 7, 0, 0, 0)
s = 140: (0, 0, 62, 55, 0, 0, 0, 14, 5, 0, 0, 0)
s = 141: (0, 0, 59, 30, 0, 0, 0, 12, 9, 0, 0, 0)
s = 142: (0, 0, 39, 34, 0, 0, 0, 11, 11, 0, 0, 0)
s = 143: (0, 0, 29, 29, 0, 0, 0, 9, 5, 0, 0, 0)
s = 144: (0, 0, 48, 36, 0, 0, 0, 14, 5, 0, 0, 0)
s = 145: (0, 0, 40, 28, 0, 0, 0, 8, 10, 0, 0, 0)
s = 146: (0, 0, 44, 27, 0, 0, 0, 11, 7, 0, 0, 0)
s = 147: (0, 0, 63, 25, 0, 0, 0, 10, 9, 0, 0, 0)
s = 148: (0, 0, 31, 23, 0, 0, 0, 9, 9, 0, 0, 0)
s = 149: (0, 0, 50, 35, 0, 0, 0, 12, 7, 0, 0, 0)
s = 150: (0, 0, 63, 25, 0, 0, 0, 10, 5, 0, 0, 0)
s = 151: (0, 0, 58, 28, 0, 0, 0, 11, 8, 0, 0, 0)
s = 152: (0, 0, 35, 39, 0, 0, 0, 17, 7, 0, 0, 0)
s = 153: (0, 0, 56, 32, 0, 0, 0, 9, 8, 0, 0, 0)
s = 154: (0, 0, 36, 36, 0, 0, 0, 11, 8, 0, 0, 0)
s = 155: (0, 0, 49, 42, 0, 0, 0, 6, 6, 0, 0, 0)
s = 156: (0, 0, 45, 35, 0, 0, 0, 12, 6, 0, 0, 0)
s = 157: (0, 0, 47, 21, 0, 0, 0, 9, 8, 0, 0, 0)
s = 158: (0, 0, 37, 30, 0, 0, 0, 8, 6, 0, 0, 0)
s = 159: (0, 0, 31, 24, 0, 0, 0, 10, 11, 0, 0, 0)
s = 160: (0, 0, 55, 27, 0, 0, 0, 11, 8, 0, 0, 0)
s = 161: (0, 0, 39, 52, 0, 0, 0, 7, 6, 0, 0, 0)
s = 162: (0, 0, 38, 41, 0, 0, 0, 9, 7, 0, 0, 0)
s = 163: (0, 0, 43, 22, 0, 0, 0, 13, 6, 0, 0, 0)
s = 164: (0, 0, 41, 29, 0, 0, 0, 7, 9, 0, 0, 0)
s = 165: (0, 0, 51, 35, 0, 0, 0, 13, 5, 0, 0, 0)
s = 166: (0, 0, 62, 21, 0, 0, 0, 11, 7, 0, 0, 0)
s = 167: (0, 0, 37, 35, 0, 0, 0, 7, 7, 0, 0, 0)
s = 168: (0, 0, 55, 49, 0, 0, 0, 8, 12, 0, 0, 0)
s = 169: (0, 0, 62, 34, 0, 0, 0, 9, 5, 0, 0, 0)
s = 170: (0, 0, 56, 34, 0, 0, 0, 12, 7, 0, 0, 0)
s = 171: (0, 0, 40, 28, 0, 0, 0, 13, 5, 0, 0, 0)
s = 172: (0, 0, 37, 40, 0, 0, 0, 12, 8, 0, 0, 0)
s = 173: (0, 0, 51, 24, 0, 0, 0, 10, 5, 0, 0, 0)
s = 174: (0, 0, 36, 39, 0, 0, 0, 9, 5, 0, 0, 0)
s = 175: (0, 0, 51, 33, 0, 0, 0, 13, 6, 0, 0, 0)
s = 176: (0, 0, 56, 30, 0, 0, 0, 8, 8, 0, 0, 0)
s = 177: (0, 0, 65, 27, 0, 0, 0, 6, 10, 0, 0, 0)
s = 178: (0, 0, 44, 35, 0, 0, 0, 11, 5, 0, 0, 0)
s = 179: (0, 0, 70, 46, 0, 0, 0, 14, 6, 0, 0, 0)
s = 180: (0, 0, 54, 29, 0, 0, 0, 9, 12, 0, 0, 0)
s = 181: (0, 0, 35, 23, 0, 0, 0, 7, 11, 0, 0, 0)
s = 182: (0, 0, 38, 43, 0, 0, 0, 7, 10, 0, 0, 0)
s = 183: (0, 0, 45, 40, 0, 0, 0, 9, 6, 0, 0, 0)
s = 184: (0, 0, 65, 25, 0, 0, 0, 10, 5, 0, 0, 0)
s = 185: (0, 0, 42, 21, 0, 0, 0, 19, 9, 0, 0, 0)
s = 186: (0, 0, 33, 41, 0, 0, 0, 13, 9, 0, 0, 0)
s = 187: (0, 0, 54, 46, 0, 0, 0, 8, 5, 0, 0, 0)
s = 188: (0, 0, 45, 20, 0, 0, 0, 13, 6, 0, 0, 0)
s = 189: (0, 0, 41, 29, 0, 0, 0, 10, 6, 0, 0, 0)
s = 190: (0, 0, 68, 25, 0, 0, 0, 7, 6, 0, 0, 0)
s = 191: (0, 0, 40, 37, 0, 0, 0, 18, 9, 0, 0, 0)
s = 192: (0, 0, 61, 28, 0, 0, 0, 7, 6, 0, 0, 0)
s = 193: (0, 0, 82, 30, 0, 0, 0, 10, 7, 0, 0, 0)
s = 194: (0, 0, 30, 46, 0, 0, 0, 12, 8, 0, 0, 0)
s = 195: (0, 0, 58, 32, 0, 0, 0, 17, 11, 0, 0, 0)
s = 196: (0, 0, 45, 43, 0, 0, 0, 7, 9, 0, 0, 0)
s = 197: (0, 0, 40, 32, 0, 0, 0, 7, 9, 0, 0, 0)
s = 198: (0, 0, 40, 29, 0, 0, 0, 10, 6, 0, 0, 0)
s = 199: (0, 0, 73, 44, 0, 0, 0, 11, 6, 0, 0, 0)
s = 200: (0, 0, 48, 25, 0, 0, 0, 16, 4, 0, 0, 0)
************************************************************************
ES/LS-VALUES:
jobnr.   ES(i)    LS(i)
------------------------------------------------------------------------
  0        0        0
  1        0       74
  2        0       47
  3        0       57
  4       14       62
  5       14       66
  6        8       67
  7       21       70
  8       21       78
  9       14       72
 10       22       72
 11       29       80
************************************************************************
BIG-M-VALUES:
M1 = 65, M2 = 345
************************************************************************
